============================[ Problem Statistics ]=============================|                                                                             ||  Number of variables:          4242                                         ||  Number of clauses:            9836                                         ||  Parse time:                   0.24 s                                       ||                                                                             |============================[ Search Statistics ]==============================| Conflicts |          ORIGINAL         |          LEARNT          | Progress ||           |    Vars  Clauses Literals |    Limit  Clauses Lit/Cl |          |===============================================================================|       100 |    1591     6041   358632 |     2215      100     53 | 62.501 % |===============================================================================restarts              : 2conflicts             : 140            (356 /sec)decisions             : 313            (0.00 % random) (796 /sec)propagations          : 9938           (25288 /sec)conflict literals     : 8805           (95.50 % deleted)CPU time              : 0.393 sSATISFIABLE